
Gurobi 6.5.2 (linux64) logging started Mon Aug 29 10:58:03 2016

Optimize a model with 201 rows, 2575 columns and 5439 nonzeros
Coefficient statistics:
  Matrix range    [1e+00, 2e+00]
  Objective range [1e+00, 1e+02]
  Bounds range    [1e+00, 1e+00]
  RHS range       [1e+00, 1e+00]
Found heuristic solution: objective 2418
Presolve removed 53 rows and 6 columns
Presolve time: 0.01s
Presolved: 148 rows, 2569 columns, 5220 nonzeros
Variable types: 0 continuous, 2569 integer (2569 binary)

Root relaxation: objective 6.012500e+02, 119 iterations, 0.00 seconds

    Nodes    |    Current Node    |     Objective Bounds      |     Work
 Expl Unexpl |  Obj  Depth IntInf | Incumbent    BestBd   Gap | It/Node Time

     0     0  601.25000    0   47 2418.00000  601.25000  75.1%     -    0s
H    0     0                    1003.0000000  601.25000  40.1%     -    0s
H    0     0                     766.0000000  601.25000  21.5%     -    0s
     0     0  666.42500    0   76  766.00000  666.42500  13.0%     -    0s
     0     0  668.06716    0   74  766.00000  668.06716  12.8%     -    0s
     0     0  681.86365    0   96  766.00000  681.86365  11.0%     -    0s
     0     0  682.27442    0  103  766.00000  682.27442  10.9%     -    0s
     0     0  689.62500    0  124  766.00000  689.62500  10.0%     -    0s
H    0     0                     751.0000000  689.62500  8.17%     -    0s
     0     0  689.70000    0  118  751.00000  689.70000  8.16%     -    0s
     0     0  695.10812    0  117  751.00000  695.10812  7.44%     -    0s
     0     0  696.84937    0  122  751.00000  696.84937  7.21%     -    0s
     0     0  698.33287    0  117  751.00000  698.33287  7.01%     -    0s
     0     0  698.33287    0   47  751.00000  698.33287  7.01%     -    0s
H    0     0                     746.0000000  698.33287  6.39%     -    0s
     0     0  698.33287    0   81  746.00000  698.33287  6.39%     -    0s
     0     0  698.33287    0  104  746.00000  698.33287  6.39%     -    0s
     0     0  699.97905    0  115  746.00000  699.97905  6.17%     -    0s
     0     0  700.50000    0   85  746.00000  700.50000  6.10%     -    0s
     0     0  701.62281    0  127  746.00000  701.62281  5.95%     -    0s
     0     0  701.62281    0  127  746.00000  701.62281  5.95%     -    0s
H    0     0                     741.0000000  701.62281  5.31%     -    0s
     0     0  701.62281    0   47  741.00000  701.62281  5.31%     -    0s
     0     0  701.62281    0   89  741.00000  701.62281  5.31%     -    0s
     0     0  701.62281    0  107  741.00000  701.62281  5.31%     -    0s
     0     0  703.55000    0   99  741.00000  703.55000  5.05%     -    0s
     0     0  704.55952    0  118  741.00000  704.55952  4.92%     -    0s
     0     0  705.88333    0  134  741.00000  705.88333  4.74%     -    0s
     0     0  705.88333    0  107  741.00000  705.88333  4.74%     -    0s
     0     0  705.88333    0   47  741.00000  705.88333  4.74%     -    0s
     0     0  705.88333    0   86  741.00000  705.88333  4.74%     -    0s
     0     0  705.88333    0   88  741.00000  705.88333  4.74%     -    0s
     0     0  705.88333    0   94  741.00000  705.88333  4.74%     -    0s
     0     0  705.88333    0   90  741.00000  705.88333  4.74%     -    0s
     0     0  707.02509    0  122  741.00000  707.02509  4.59%     -    0s
     0     0  707.02509    0  122  741.00000  707.02509  4.59%     -    0s
H    0     2                     739.0000000  707.02509  4.33%     -    0s
     0     2  707.02509    0  122  739.00000  707.02509  4.33%     -    0s
H  185   139                     736.0000000  713.15278  3.10%   8.4    0s
H  214   128                     731.0000000  713.15278  2.44%   8.5    0s
*  470   142              18     730.0000000  718.90278  1.52%   8.1    0s
H  660    81                     725.0000000  720.47500  0.62%   7.9    0s

Cutting planes:
  Gomory: 37
  Cover: 148
  MIR: 13
  Zero half: 7

Explored 898 nodes (7784 simplex iterations) in 0.99 seconds
Thread count was 8 (of 8 available processors)

Optimal solution found (tolerance 1.00e-04)
Best objective 7.250000000000e+02, best bound 7.250000000000e+02, gap 0.0%
